# Solution for model problem_
# Objective value = 8.8012939680560943e+04
x(0_0) 0
x(0_1) 1
x(0_2) 0
x(0_3) 0
x(0_4) 0
x(0_5) 0
x(0_6) 0
x(0_7) 0
x(0_8) 0
x(0_9) 0
x(0_10) 0
x(0_11) 0
x(0_12) 0
x(0_13) 0
x(0_14) 0
x(0_15) 0
x(0_16) 0
x(0_17) 0
x(1_18) 0
x(1_19) 0
x(1_20) 0
x(1_21) 0
x(1_22) 0
x(1_23) 0
x(1_24) 0
x(1_25) 1
x(1_26) 0
x(1_27) 0
x(1_28) 0
x(2_29) 0
x(2_30) 0
x(2_31) 0
x(2_32) 0
x(2_33) 0
x(2_34) 0
x(2_35) 0
x(2_36) 0
x(2_37) 0
x(2_38) 0
x(2_39) 0
x(2_40) 1
x(2_41) 0
x(2_42) 0
x(2_43) 0
x(3_44) 0
x(3_45) 0
x(3_46) 0
x(3_47) 0
x(3_48) 1
x(3_49) 0
x(3_50) 0
x(3_51) 0
x(3_52) 0
x(3_53) 0
x(3_54) 0
x(3_55) 0
x(4_56) 0
x(4_57) 1
x(4_58) 0
x(4_59) 0
x(4_60) 0
x(4_61) 0
x(4_62) 0
x(4_63) 0
x(4_64) 0
x(4_65) 0
x(4_66) 0
x(5_67) 1
x(5_68) 0
x(5_69) 0
x(5_70) 0
x(5_71) 0
x(5_72) 0
x(5_73) 0
x(5_74) 0
x(5_75) 0
x(5_76) 0
x(5_77) 0
x(5_78) 0
x(5_79) 0
x(5_80) 0
x(6_81) 0
x(6_82) 0
x(6_83) 0
x(6_84) 0
x(6_85) 0
x(6_86) 0
x(6_87) 0
x(6_88) 0
x(6_89) 0
x(6_90) 0
x(6_91) 0
x(6_92) 0
x(6_93) 0
x(6_94) 0
x(6_95) 0
x(6_96) 0
x(6_97) 0
x(6_98) 1
x(7_99) 0
x(7_100) 0
x(7_101) 0
x(7_102) 0
x(7_103) 0
x(7_104) 0
x(7_105) 0
x(7_106) 1
x(7_107) 0
x(7_108) 0
x(7_109) 0
x(7_110) 0
x(7_111) 0
x(8_112) 0
x(8_113) 0
x(8_114) 0
x(8_115) 0
x(8_116) 0
x(8_117) 0
x(8_118) 0
x(8_119) 0
x(8_120) 0
x(8_121) 0
x(8_122) 0
x(8_123) 0
x(8_124) 0
x(8_125) 0
x(8_126) 0
x(8_127) 0
x(8_128) 0
x(8_129) 0
x(8_130) 1
x(8_131) 0
x(9_132) 0
x(9_133) 0
x(9_134) 0
x(9_135) 0
x(9_136) 0
x(9_137) 0
x(9_138) 0
x(9_139) 0
x(9_140) 0
x(9_141) 0
x(9_142) 0
x(9_143) 0
x(9_144) 0
x(9_145) 0
x(9_146) 0
x(9_147) 0
x(9_148) 0
x(9_149) 0
x(9_150) 0
x(9_151) 1
x(10_152) 0
x(10_153) 0
x(10_154) 0
x(10_155) 0
x(10_156) 0
x(10_157) 0
x(10_158) 0
x(10_159) 0
x(10_160) 1
x(10_161) 0
x(10_162) 0
x(10_163) 0
x(10_164) 0
x(10_165) 0
x(10_166) 0
x(10_167) 0
x(10_168) 0
x(10_169) 0
x(10_170) 0
x(10_171) 0
x(11_172) 0
x(11_173) 0
x(11_174) 1
x(11_175) 0
x(11_176) 0
x(11_177) 0
x(11_178) 0
x(11_179) 0
x(11_180) 0
x(11_181) 0
x(12_182) 0
x(12_183) 0
x(12_184) 0
x(12_185) 0
x(12_186) 0
x(12_187) 0
x(12_188) 1
x(12_189) 0
x(12_190) 0
x(12_191) 0
x(12_192) 0
x(12_193) 0
x(12_194) 0
x(12_195) 0
x(12_196) 0
x(12_197) 0
x(12_198) 0
x(12_199) 0
x(12_200) 0
x(12_201) 0
x(13_202) 0
x(13_203) 0
x(13_204) 1
x(13_205) 0
x(13_206) 0
x(13_207) 0
x(13_208) 0
x(13_209) 0
x(13_210) 0
x(13_211) 0
x(13_212) 0
x(13_213) 0
x(14_214) 0
x(14_215) 0
x(14_216) 0
x(14_217) 0
x(14_218) 0
x(14_219) 0
x(14_220) 0
x(14_221) 0
x(14_222) 0
x(14_223) 0
x(14_224) 0
x(14_225) 0
x(14_226) 0
x(14_227) 0
x(14_228) 0
x(14_229) 0
x(14_230) 0
x(14_231) 0
x(14_232) 1
x(14_233) 0
x(15_234) 0
x(15_235) 0
x(15_236) 0
x(15_237) 0
x(15_238) 1
x(15_239) 0
x(15_240) 0
x(15_241) 0
x(15_242) 0
x(15_243) 0
x(15_244) 0
x(16_245) 0
x(16_246) 0
x(16_247) 0
x(16_248) 0
x(16_249) 0
x(16_250) 0
x(16_251) 0
x(16_252) 1
x(16_253) 0
x(16_254) 0
x(16_255) 0
x(16_256) 0
x(17_257) 0
x(17_258) 0
x(17_259) 0
x(17_260) 0
x(17_261) 0
x(17_262) 0
x(17_263) 0
x(17_264) 0
x(17_265) 0
x(17_266) 0
x(17_267) 0
x(17_268) 0
x(17_269) 0
x(17_270) 1
x(18_271) 1
x(18_272) 0
x(18_273) 0
x(18_274) 0
x(18_275) 0
x(18_276) 0
x(18_277) 0
x(18_278) 0
x(18_279) 0
x(18_280) 0
x(18_281) 0
x(18_282) 0
x(18_283) 0
x(18_284) 0
x(18_285) 0
x(18_286) 0
x(18_287) 0
x(19_288) 0
x(19_289) 0
x(19_290) 0
x(19_291) 0
x(19_292) 0
x(19_293) 0
x(19_294) 0
x(19_295) 0
x(19_296) 0
x(19_297) 0
x(19_298) 0
x(19_299) 0
x(19_300) 1
x(19_301) 0
x(19_302) 0
x(19_303) 0
x(20_304) 0
x(20_305) 0
x(20_306) 0
x(20_307) 0
x(20_308) 0
x(20_309) 0
x(20_310) 0
x(20_311) 1
x(20_312) 0
x(20_313) 0
x(20_314) 0
x(20_315) 0
x(20_316) 0
x(21_317) 1
x(21_318) 0
x(21_319) 0
x(21_320) 0
x(21_321) 0
x(21_322) 0
x(21_323) 0
x(21_324) 0
x(21_325) 0
x(21_326) 0
x(21_327) 0
x(21_328) 0
x(21_329) 0
x(21_330) 0
x(21_331) 0
x(21_332) 0
x(21_333) 0
x(22_334) 0
x(22_335) 0
x(22_336) 1
x(22_337) 0
x(22_338) 0
x(22_339) 0
x(22_340) 0
x(22_341) 0
x(22_342) 0
x(22_343) 0
x(22_344) 0
x(22_345) 0
x(22_346) 0
x(22_347) 0
x(22_348) 0
x(22_349) 0
x(22_350) 0
x(22_351) 0
x(22_352) 0
x(23_353) 0
x(23_354) 0
x(23_355) 0
x(23_356) 0
x(23_357) 0
x(23_358) 0
x(23_359) 0
x(23_360) 1
x(23_361) 0
x(23_362) 0
x(23_363) 0
x(23_364) 0
x(23_365) 0
x(24_366) 0
x(24_367) 0
x(24_368) 0
x(24_369) 0
x(24_370) 0
x(24_371) 0
x(24_372) 0
x(24_373) 0
x(24_374) 0
x(24_375) 1
x(24_376) 0
x(24_377) 0
x(25_378) 0
x(25_379) 0
x(25_380) 0
x(25_381) 0
x(25_382) 0
x(25_383) 0
x(25_384) 0
x(25_385) 0
x(25_386) 0
x(25_387) 0
x(25_388) 0
x(25_389) 0
x(25_390) 1
x(25_391) 0
x(26_392) 0
x(26_393) 0
x(26_394) 0
x(26_395) 0
x(26_396) 0
x(26_397) 0
x(26_398) 0
x(26_399) 0
x(26_400) 0
x(26_401) 0
x(26_402) 0
x(26_403) 0
x(26_404) 1
x(26_405) 0
x(26_406) 0
x(26_407) 0
x(26_408) 0
x(26_409) 0
x(26_410) 0
x(26_411) 0
x(27_412) 0
x(27_413) 0
x(27_414) 0
x(27_415) 0
x(27_416) 0
x(27_417) 0
x(27_418) 0
x(27_419) 0
x(27_420) 0
x(27_421) 0
x(27_422) 0
x(27_423) 1
x(27_424) 0
x(27_425) 0
x(27_426) 0
x(27_427) 0
x(28_428) 0
x(28_429) 0
x(28_430) 0
x(28_431) 0
x(28_432) 0
x(28_433) 1
x(28_434) 0
x(28_435) 0
x(28_436) 0
x(28_437) 0
x(28_438) 0
x(28_439) 0
x(28_440) 0
x(28_441) 0
x(28_442) 0
x(28_443) 0
x(28_444) 0
x(28_445) 0
x(29_446) 0
x(29_447) 1
x(29_448) 0
x(29_449) 0
x(29_450) 0
x(29_451) 0
x(29_452) 0
x(29_453) 0
x(29_454) 0
x(29_455) 0
x(29_456) 0
x(29_457) 0
x(29_458) 0
x(29_459) 0
x(29_460) 0
x(29_461) 0
x(29_462) 0
x(29_463) 0
x(29_464) 0
x(30_465) 0
x(30_466) 0
x(30_467) 0
x(30_468) 0
x(30_469) 0
x(30_470) 0
x(30_471) 1
x(30_472) 0
x(30_473) 0
x(30_474) 0
x(30_475) 0
x(30_476) 0
x(30_477) 0
x(31_478) 0
x(31_479) 0
x(31_480) 0
x(31_481) 0
x(31_482) 1
x(31_483) 0
x(31_484) 0
x(31_485) 0
x(31_486) 0
x(31_487) 0
x(31_488) 0
x(31_489) 0
x(31_490) 0
x(31_491) 0
x(31_492) 0
x(31_493) 0
x(31_494) 0
x(31_495) 0
x(31_496) 0
x(31_497) 0
x(32_498) 1
x(32_499) 0
x(32_500) 0
x(32_501) 0
x(32_502) 0
x(32_503) 0
x(32_504) 0
x(32_505) 0
x(32_506) 0
x(32_507) 0
x(32_508) 0
x(32_509) 0
x(32_510) 0
x(32_511) 0
x(32_512) 0
x(32_513) 0
x(32_514) 0
x(32_515) 0
x(33_516) 0
x(33_517) 0
x(33_518) 0
x(33_519) 0
x(33_520) 0
x(33_521) 0
x(33_522) 0
x(33_523) 0
x(33_524) 0
x(33_525) 0
x(33_526) 0
x(33_527) 0
x(33_528) 1
x(33_529) 0
x(34_530) 0
x(34_531) 0
x(34_532) 0
x(34_533) 0
x(34_534) 0
x(34_535) 0
x(34_536) 0
x(34_537) 0
x(34_538) 0
x(34_539) 1
x(34_540) 0
x(34_541) 0
x(34_542) 0
x(34_543) 0
x_1_0 1.4795002151839435e+02
s_1_0 0
z_1_0 0
x_1_1 1.4440448329225183e+02
s_1_1 0
z_1_1 0
x_1_2 1.4397949477285147e+02
s_1_2 0
z_1_2 0
x_1_3 1.4540034577436745e+02
s_1_3 0
z_1_3 0
x_1_4 147.705601607915
s_1_4 0
z_1_4 0
x_1_5 4.9999502376534278e+04
s_1_5 5.0000497623465722e+04
z_1_5 5.0000497623465723e-01
x_1_6 1.4905365054123104e+02
s_1_6 0
z_1_6 0
x_1_7 1.4841045542061329e+02
s_1_7 0
z_1_7 0
x_1_8 1.4823947677016258e+02
s_1_8 0
z_1_8 0
x_1_9 1.4877786950650625e+02
s_1_9 0
z_1_9 0
x_1_10 0
s_1_10 8.6196553800255060e-01
z_1_10 1
x_1_11 0
s_1_11 9.1571736359037459e-01
z_1_11 1
x_1_12 1.4878354024607688e+02
s_1_12 0
z_1_12 0
x_1_13 0
s_1_13 1.1351207211846486e+00
z_1_13 1
x_1_14 1.4870004412531853e+02
s_1_14 0
z_1_14 0
x_1_15 1.4900273824110627e+02
s_1_15 0
z_1_15 0
x_1_16 1.4853391524590552e+02
s_1_16 0
z_1_16 0
x_1_17 1.4833107081055641e+02
s_1_17 0
z_1_17 0
x_1_18 0
s_1_18 1.0291649926803075e+00
z_1_18 1
x_1_19 1.4716557237971574e+02
s_1_19 0
z_1_19 0
x_1_20 0
s_1_20 1.2182240998372436e+00
z_1_20 1
x_1_21 0
s_1_21 1.2370558351394720e+00
z_1_21 1
x_1_22 1.4785218512453139e+02
s_1_22 0
z_1_22 0
x_1_23 0
s_1_23 6.7303789465222508e-01
z_1_23 1
x_1_24 1.4816658748313785e+02
s_1_24 0
z_1_24 0
x_1_25 1.4716995162516832e+02
s_1_25 0
z_1_25 0
x_1_26 1.4743220541067421e+02
s_1_26 0
z_1_26 0
x_1_27 1.4936859605461359e+02
s_1_27 0
z_1_27 0
x_1_28 1.4815742863412015e+02
s_1_28 0
z_1_28 0
x_1_29 1.4935499263741076e+02
s_1_29 0
z_1_29 0
x_1_30 1.4729525140672922e+02
s_1_30 0
z_1_30 0
x_1_31 1.4844341264944524e+02
s_1_31 0
z_1_31 0
x_1_32 1.4905857488943730e+02
s_1_32 0
z_1_32 0
x_1_33 0
s_1_33 8.5244029246678110e-01
z_1_33 1
x_1_34 0
s_1_34 1.0386894033144927e+00
z_1_34 1
x_1_35 1.4646623226627707e+02
s_1_35 0
z_1_35 0
x_1_36 0
s_1_36 1.0252475158777088e+00
z_1_36 1
x_1_37 0
s_1_37 5.9246983863704372e-01
z_1_37 1
x_1_38 0
s_1_38 8.6306973313912749e-01
z_1_38 1
x_1_39 1.4838447970896959e+02
s_1_39 0
z_1_39 0
x_1_40 1.4752997973561287e+02
s_1_40 0
z_1_40 0
x_1_41 1.4781648455187678e+02
s_1_41 0
z_1_41 0
x_1_42 4.9999478978325133e+04
s_1_42 5.0000521021674867e+04
z_1_42 5.0000521021674871e-01
x_1_43 0
s_1_43 8.0147296481300145e-01
z_1_43 1
x_1_44 0
s_1_44 9.5181798189878464e-01
z_1_44 1
x_1_45 0
s_1_45 1.2025798288523220e+00
z_1_45 1
x_1_46 0
s_1_46 8.3060893928632140e-01
z_1_46 1
x_1_47 0
s_1_47 8.3721160143613815e-01
z_1_47 1
x_1_48 0
s_1_48 8.6533845038502477e-01
z_1_48 1
x_1_49 1.4759094274975359e+02
s_1_49 0
z_1_49 0
x_1_50 1.4871888490952551e+02
s_1_50 0
z_1_50 0
x_1_51 1.4722916654497385e+02
s_1_51 0
z_1_51 0
x_1_52 4.9999693592935044e+04
s_1_52 5.0000306407064956e+04
z_1_52 5.0000306407064954e-01
x_1_53 1.4711034702882171e+02
s_1_53 0
z_1_53 0
x_1_54 0
s_1_54 5.2740011713467538e-01
z_1_54 1
x_1_55 0
s_1_55 0.801374574424699
z_1_55 1
x_1_56 1.4852923171594739e+02
s_1_56 0
z_1_56 0
x_1_57 1.4746636242233217e+02
s_1_57 0
z_1_57 0
x_1_58 1.4604627122543752e+02
s_1_58 0
z_1_58 0
x_1_59 1.4777936814818531e+02
s_1_59 0
z_1_59 0
x_1_60 0
s_1_60 9.8660193069372326e-01
z_1_60 1
x_1_61 1.4827927442081273e+02
s_1_61 0
z_1_61 0
x_1_62 0
s_1_62 6.2517200194997713e-01
z_1_62 1
x_1_63 1.4768696408160031e+02
s_1_63 0
z_1_63 0
x_1_64 0
s_1_64 7.2631766332779080e-01
z_1_64 1
x_1_65 0
s_1_65 9.9616171629168093e-01
z_1_65 1
x_1_66 1.4863068192917854e+02
s_1_66 0
z_1_66 0
x_1_67 1.4782803755812347e+02
s_1_67 0
z_1_67 0
x_1_68 0
s_1_68 8.1319095077924430e-01
z_1_68 1
x_1_69 1.4724146160320379e+02
s_1_69 0
z_1_69 0
x_1_70 0
s_1_70 8.1439351919107139e-01
z_1_70 1
x_1_71 0
s_1_71 1.0243156894866843e+00
z_1_71 1
x_1_72 0
s_1_72 6.4564841706305742e-01
z_1_72 1
x_1_73 147.960923621431
s_1_73 0
z_1_73 0
x_1_74 0
s_1_74 8.2444549223873764e-01
z_1_74 1
x_1_75 0
s_1_75 1.2548662079498172e+00
z_1_75 1
x_1_76 1.4898111290484667e+02
s_1_76 0
z_1_76 0
x_1_77 1.4766614057682455e+02
s_1_77 0
z_1_77 0
x_1_78 1.4901311431825161e+02
s_1_78 0
z_1_78 0
x_1_79 0
s_1_79 9.2957338469568640e-01
z_1_79 1
x_1_80 0
s_1_80 5.5461728060618043e-01
z_1_80 1
x_1_81 0
s_1_81 3.1176661362405866e-01
z_1_81 1
x_1_82 1.4578426099941134e+02
s_1_82 0
z_1_82 0
x_1_83 1.4713092227326706e+02
s_1_83 0
z_1_83 0
x_1_84 0
s_1_84 1.1530229047639295e+00
z_1_84 1
x_1_85 1.4746951251663268e+02
s_1_85 0
z_1_85 0
x_1_86 0
s_1_86 8.2594765769317746e-01
z_1_86 1
x_1_87 1.4910710907448083e+02
s_1_87 0
z_1_87 0
x_1_88 1.4715589963644743e+02
s_1_88 0
z_1_88 0
x_1_89 1.4755541122332215e+02
s_1_89 0
z_1_89 0
x_1_90 1.4773719313740730e+02
s_1_90 0
z_1_90 0
x_1_91 1.4828236104734242e+02
s_1_91 0
z_1_91 0
x_1_92 0
s_1_92 7.7288544503971934e-01
z_1_92 1
x_1_93 1.4781848408281803e+02
s_1_93 0
z_1_93 0
x_1_94 1.4790841097012162e+02
s_1_94 0
z_1_94 0
x_1_95 0
s_1_95 8.2306975731626153e-01
z_1_95 1
x_1_96 1.4675767461769283e+02
s_1_96 0
z_1_96 0
x_1_97 1.4765372062474489e+02
s_1_97 0
z_1_97 0
x_1_98 0
s_1_98 4.0406736324075609e-01
z_1_98 1
x_1_99 0
s_1_99 8.6284325750602875e-01
z_1_99 1
x_1_100 1.4909852929413319e+02
s_1_100 0
z_1_100 0
x_1_101 1.4790726308338344e+02
s_1_101 0
z_1_101 0
x_1_102 1.4879005809128284e+02
s_1_102 0
z_1_102 0
x_1_103 1.4923766260966659e+02
s_1_103 0
z_1_103 0
x_1_104 1.4905870867148042e+02
s_1_104 0
z_1_104 0
x_1_105 1.4738959938287735e+02
s_1_105 0
z_1_105 0
x_1_106 1.4879608918540180e+02
s_1_106 0
z_1_106 0
x_1_107 1.4860527797788382e+02
s_1_107 0
z_1_107 0
x_1_108 1.4779046056699008e+02
s_1_108 0
z_1_108 0
x_1_109 4.9999365935993759e+04
s_1_109 5.0000634064006241e+04
z_1_109 5.0000634064006244e-01
x_1_110 1.4529590234579518e+02
s_1_110 0
z_1_110 0
x_1_111 1.4789664699882269e+02
s_1_111 0
z_1_111 0
x_1_112 1.4799059232696891e+02
s_1_112 0
z_1_112 0
x_1_113 0
s_1_113 6.7081652104388922e-01
z_1_113 1
x_1_114 4.9999648856993896e+04
s_1_114 5.0000351143006104e+04
z_1_114 0.500003511430061
x_1_115 0
s_1_115 5.8121035923250020e-01
z_1_115 1
x_1_116 1.4739362253993750e+02
s_1_116 0
z_1_116 0
x_1_117 1.4832244192436337e+02
s_1_117 0
z_1_117 0
x_1_118 0
s_1_118 1.0507914898626041e+00
z_1_118 1
x_1_119 1.4938358844071627e+02
s_1_119 0
z_1_119 0
x_1_120 1.4771731232339516e+02
s_1_120 0
z_1_120 0
x_1_121 4.9999406225853840e+04
s_1_121 5.0000593774146168e+04
z_1_121 5.0000593774146163e-01
x_1_122 1.4785109709575772e+02
s_1_122 0
z_1_122 0
x_1_123 1.4685168128274381e+02
s_1_123 0
z_1_123 0
x_1_124 1.4879282610397786e+02
s_1_124 0
z_1_124 0
x_1_125 0
s_1_125 8.2891507830936462e-01
z_1_125 1
x_1_126 147.464732542634
s_1_126 0
z_1_126 0
x_1_127 0
s_1_127 1.0042262104107067e+00
z_1_127 1
x_1_128 4.9999503663150033e+04
s_1_128 5.0000496336849959e+04
z_1_128 5.0000496336849964e-01
x_1_129 1.4844760454498464e+02
s_1_129 0
z_1_129 0
x_1_130 0
s_1_130 8.1140172993764281e-01
z_1_130 1
x_1_131 1.4755634078010917e+02
s_1_131 0
z_1_131 0
x_1_132 1.4768814554205164e+02
s_1_132 0
z_1_132 0
x_1_133 1.4780710037890822e+02
s_1_133 0
z_1_133 0
x_1_134 4.9999469093731896e+04
s_1_134 5.0000530906268104e+04
z_1_134 0.500005309062681
x_1_135 0
s_1_135 9.1062777070328593e-01
z_1_135 1
x_1_136 1.4885842749662697e+02
s_1_136 0
z_1_136 0
x_1_137 1.4815701645100489e+02
s_1_137 0
z_1_137 0
x_1_138 1.4758291291072965e+02
s_1_138 0
z_1_138 0
x_1_139 1.4867008948698640e+02
s_1_139 0
z_1_139 0
x_1_140 1.4749262347817421e+02
s_1_140 0
z_1_140 0
x_1_141 4.9999635369060794e+04
s_1_141 5.0000364630939206e+04
z_1_141 5.0000364630939209e-01
x_1_142 1.4824068510439247e+02
s_1_142 0
z_1_142 0
x_1_143 1.4797467670100741e+02
s_1_143 0
z_1_143 0
x_1_144 1.4888276577927172e+02
s_1_144 0
z_1_144 0
x_1_145 0
s_1_145 1.0602582173014525e+00
z_1_145 1
x_1_146 1.4927981680445373e+02
s_1_146 0
z_1_146 0
x_1_147 1.4740430280566216e+02
s_1_147 0
z_1_147 0
x_1_148 0
s_1_148 6.7576329491566867e-01
z_1_148 1
x_1_149 1.4574102652791771e+02
s_1_149 0
z_1_149 0
x_1_150 0
s_1_150 1.2659622738137841e+00
z_1_150 1
x_1_151 0
s_1_151 1.15383708383888
z_1_151 1
x_1_152 0
s_1_152 7.6676459820009768e-01
z_1_152 1
x_1_153 1.4847497840039432e+02
s_1_153 0
z_1_153 0
x_1_154 1.4809275230951607e+02
s_1_154 0
z_1_154 0
x_1_155 1.4710611458122730e+02
s_1_155 0
z_1_155 0
x_1_156 1.4738239791803062e+02
s_1_156 0
z_1_156 0
x_1_157 1.4771622742805630e+02
s_1_157 0
z_1_157 0
x_1_158 1.4529670053720474e+02
s_1_158 0
z_1_158 0
x_1_159 4.9999542604120914e+04
s_1_159 5.0000457395879086e+04
z_1_159 5.0000457395879083e-01
x_2_0 8.7291295680560943e+04
